   84
Geometry Step: 260
    O     15.18953970      8.97527691    -15.91007917
    N     14.19291992     14.49691876    -15.82085929
    H     11.59423006     14.51275944    -19.61034153
    C     12.79184171     14.44623111    -17.84654742
    H     12.49902060     13.42883085    -17.59596065
    C     14.43261639     13.09208523    -15.82802486
    C     14.90444767     12.44577071    -16.98992589
    H     15.09056516     13.02868800    -17.88887922
    C     15.13655429     11.07394501    -16.98932420
    H     15.49941717     10.57619993    -17.88418986
    C     14.92169463     10.31613861    -15.82350700
    C     14.46046338     10.95102380    -14.65584416
    H     14.27891364     10.39618872    -13.74001852
    C     14.21328116     12.32539357    -14.66853688
    H     13.84679899     12.81383973    -13.76874733
    C     14.99297935      8.16219918    -14.76852092
    H     15.26965218      7.14052513    -15.04299332
    H     13.94026695      8.17242789    -14.44578669
    H     15.62582308      8.48985118    -13.92905655
    C      9.68631152     18.37091169    -28.87336078
    H      9.73480407     17.67109303    -29.71239045
    H      9.74254719     19.39931375    -29.26295032
    O     10.77767200     18.08368522    -28.01928181
    N     11.74574618     21.01520362    -23.33073500
    C     12.11081601     17.04320925    -20.43900527
    H     11.43754606     16.49583240    -21.09775261
    C     12.62326217     16.40558215    -19.29839290
    C     12.28373872     15.05443784    -18.96434974
    C     13.69304351     15.14599295    -16.97391368
    C     14.03907699     16.45966443    -17.27148897
    H     14.72316363     16.99894017    -16.61992102
    C     13.51490509     17.12106634    -18.42052859
    C     13.85022723     18.45377970    -18.73109225
    H     14.52336098     19.00088189    -18.07181004
    C     13.33376497     19.09297827    -19.86878690
    C     13.66307936     20.44887684    -20.19373073
    H     14.34777151     20.99273335    -19.54409543
    C     13.14736612     21.06039121    -21.30600996
    H     13.42757779     22.08308511    -21.54888079
    C     12.25327145     20.35825810    -22.18365717
    C     11.91873607     19.03982233    -21.89656235
    H     11.24006312     18.49992842    -22.55326229
    C     12.44507355     18.37640320    -20.74915724
    C     14.51004567     15.25130967    -14.65012519
    C     15.64147171     14.93252787    -13.87814316
    H     16.28154771     14.10891936    -14.18544462
    C     15.95518279     15.65818421    -12.72612255
    H     16.83815406     15.38094297    -12.15785682
    C     15.13606227     16.73293575    -12.33658701
    C     14.00077198     17.05676898    -13.10284801
    H     13.36907542     17.88301999    -12.78897309
    C     13.68726051     16.32086871    -14.24039199
    H     12.80456630     16.56953412    -14.82449688
    H     17.43653339     17.35759187    -11.02557645
    C     11.47469808     20.27703236    -24.52167694
    C     12.32415793     19.22443847    -24.92195721
    H     13.18946483     18.97463981    -24.31312512
    C     12.06159728     18.50811467    -26.08451005
    H     12.71527650     17.69636154    -26.39095322
    C     10.95267273     18.83529486    -26.88702259
    C     10.10297913     19.88809039    -26.50302253
    H      9.23501070     20.16340749    -27.09509428
    C     10.36418997     20.59296164    -25.32503726
    H      9.69935526     21.39887368    -25.02282191
    H      8.72393629     18.23875452    -28.35474716
    C     11.46647766     22.41176905    -23.28797208
    C     10.97974404     23.00989275    -22.10617349
    H     10.80642694     22.39435823    -21.22668279
    C     10.72086716     24.37585746    -22.06015671
    H     10.34999721     24.83595872    -21.14848643
    C     10.92133587     25.17646520    -23.19955815
    C     11.38960508     24.58922014    -24.38908079
    H     11.55534143     25.17728287    -25.28712478
    C     11.66602576     23.22048457    -24.42227157
    H     12.04176986     22.77129928    -25.33846490
    O     15.36692983     17.50983366    -11.23224799
    C     16.51057108     17.25307697    -10.43899613
    H     16.47799633     16.24256166    -10.00238821
    H     16.51908517     17.98810460     -9.62913330
    O     10.63511851     26.50955530    -23.06474987
    C     10.82392898     27.36749793    -24.17406783
    H     10.18533870     27.07318397    -25.02166474
    H     11.87438295     27.37091335    -24.50432766
    H     10.54911754     28.37762359    -23.85733052
